
  16    0


   0   9 2 3 5 6 11 12 13 14 15 
   4   3 9 8 4 
   8   2 9 8 
   9   1 7 
   4   1 10 
   7   1 7 
   5   1 16
  10   1 16
   9   1 16
   3   1 16
   4   1 16
   9   1 16
   6   1 16
   5   1 16
   3   1 16
   0   0 
